n = 10; 

m=8; 


15	44	67	33	20	67	27	14	75	75
11	32	28	23	51	37	36	3	57	46
46	21	7	23	26	41	1	38	 4	40
56	34	5	22	21	50	69	13	21	75
30	13	25	64	10	3	6	5	9	75
72	23	66	12	62	12	67	71	13	9
64	14	 8	75	19	7	3	16	6	57
46	21	7	23	26	41	1	38	 4	40







 
 


 

 
